# electrodes with constrained total charges 
# for graphene-ionic liquid supercapacitor

boundary 	  p p p # slab calculation
include 	  settings.mod # styles, groups, computes and fixes

set         group top charge -0.03
set         group bot charge +0.03

thermo 		50
thermo_style 	custom step c_ctemp epair etotal 
run 		5000
